SAT
-1 -100 -99 -91 -98 -97 -96 -95 65 94 -17 38 -8 -62 -12 59 21 -51 48 66 11 -89 -37 54 -7 90 -25 -13 68 -30 18 58 22 23 44 20 52 69 -81 -73 14 2 -87 -42 16 -77 29 -82 63 -72 -47 -6 -36 -78 35 -70 92 -50 -64 -49 -86 -24 -19 -71 27 -39 33 -4 85 80 -57 -45 -31 40 56 41 83 28 -88 46 9 75 -60 67 74 -79 -5 55 61 -76 -93 -10 53 -3 43 26 -15 -84 34 -32 0
